GeneratedTests/Random_10/Random_10_8.tsp
NAME: Random_10_8
TYPE: TSP
DIMENSION: 10
EDGE_WEIGHT_TYPE: EUC_2D
NODE_COORD_SECTION
1 0.7762581 11.628836
2 4.7038007 3.4128678
3 24.276644 29.57693
4 19.81007 9.707864
5 26.007566 4.572156
6 22.21 10.708101
7 28.37817 27.832321
8 1.2089753 13.780838
9 2.3697996 28.377806
10 1.9019938 25.261732
EOF
