GeneratedTests/Random_10/Random_10_8.txt
NAME: Random_10_8
TYPE: TSP
DIMENSION: 10
EDGE_WEIGHT_TYPE: EUC_2D
NODE_COORD_SECTION
1 10.839629 26.513594
2 5.966184 4.154751
3 25.232092 12.119177
4 25.468794 28.011324
5 13.161505 28.334526
6 28.452677 16.299488
7 15.620382 8.024959
8 20.929832 15.609981
9 6.059716 16.882864
10 23.539747 5.57802
EOF
